CapLotSizing_PM/src/Instancias/NCHSHT/6i6p2m/NBA05.OUT
 CG ITER, OVMR, OVMRUB =           1   18883.8828125   18760.8007812
 CG ITER, OVMR, OVMRUB =           2   18363.4042969   18363.4042969
 CG ITER, OVMR, OVMRUB =           3   18363.4042969   18363.4042969
 CG ITER, OVMR, OVMRUB =           4   16972.6054688   18363.4042969
 CG ITER, OVMR, OVMRUB =           5   16527.5273438   18363.4042969
 CG ITER, OVMR, OVMRUB =           6   15976.8222656   18363.4042969
 CG ITER, OVMR, OVMRUB =           7   15942.8964844   18363.4042969
 CG ITER, OVMR, OVMRUB =           8   15905.7441406   18363.4042969
 CG ITER, OVMR, OVMRUB =           9   15894.8642578   18363.4042969
 CG ITER, OVMR, OVMRUB =          10   15893.6972656   18363.4042969
 CG ITER, OVMR, OVMRUB =          11   15893.2841797   18131.1875000
 CG ITER, OVMR, OVMRUB =          12   15891.3261719   16509.9414062
 CG ITER, OVMR, OVMRUB =          13   15893.5957031   16399.0917969
 CG ITER, OVMR, OVMRUB =          14   15893.5957031   16188.0556641
OVLB =   15893.5957031 OVLUB =   16188.0556641 TIME =       0.4000000
